p cnf 156 196
-1 -2 151 -153 -156 0 
-3 -2 152 -94 -153 -156 0 
-2 -3 -4 152 -94 -153 -156 0 
-2 -1 -4 151 -153 -156 0 
-3 152 -94 -153 -156 0 
-1 151 -153 -156 0 
-5 15 35 41 61 64 153 -156 0 
-6 12 53 81 113 134 138 145 -7 26 153 -156 0 
-8 77 100 -9 153 -156 0 
-10 42 -9 153 -156 0 
-11 59 74 112 121 131 140 142 147 -9 153 -156 0 
-12 6 53 81 113 134 138 145 -7 26 153 -156 0 
-13 44 45 153 -156 0 
-14 153 -156 0 
-15 5 35 41 61 64 153 -156 0 
-7 26 -16 153 -156 0 
-17 19 33 153 -156 0 
-18 46 111 -19 17 33 153 -156 0 
-20 68 130 -21 89 101 120 132 153 -156 0 
-22 25 50 75 78 79 83 92 95 98 109 150 -7 26 153 -156 0 
-23 110 117 -24 153 -156 0 
-25 22 50 75 78 79 83 92 95 98 109 150 -7 26 153 -156 0 
-4 -26 7 153 -156 0 
-27 -24 153 -156 0 
-20 68 130 -5 15 35 41 61 64 153 -156 0 
-20 68 130 153 -156 0 
-28 55 85 108 144 -7 26 153 -156 0 
-29 32 76 91 153 -156 0 
-30 -9 -4 153 -156 0 
-18 46 111 -8 77 100 -9 -4 153 -156 0 
-31 153 -156 0 
-32 29 76 91 153 -156 0 
-33 17 19 -9 -4 153 -156 0 
-34 48 105 146 153 -156 0 
-35 5 15 41 61 64 153 -156 0 
-36 38 39 69 82 129 153 -156 0 
-35 5 15 41 61 64 153 -156 0 
-22 25 50 75 78 79 83 92 95 98 109 150 -24 153 -156 0 
-37 51 71 87 -7 26 -24 153 -156 0 
-38 36 39 69 82 129 153 -156 0 
-39 36 38 69 82 129 153 -156 0 
-9 -4 153 -156 0 
-40 -20 68 130 -41 5 15 35 61 64 153 -156 0 
-42 10 -43 67 -7 26 153 -156 0 
-19 17 33 -44 13 45 153 -156 0 
-45 13 44 153 -156 0 
-46 18 111 -7 26 153 -156 0 
-47 84 104 115 139 141 153 -156 0 
-48 34 105 146 153 -156 0 
-17 19 33 -22 25 50 75 78 79 83 92 95 98 109 150 153 -156 0 
-19 17 33 -22 25 50 75 78 79 83 92 95 98 109 150 153 -156 0 
-43 67 -22 25 50 75 78 79 83 92 95 98 109 150 -42 10 -7 26 153 -156 0 
-22 25 50 75 78 79 83 92 95 98 109 150 -40 153 -156 0 
-22 25 50 75 78 79 83 92 95 98 109 150 -49 88 122 137 153 -156 0 
-22 25 50 75 78 79 83 92 95 98 109 150 -30 153 -156 0 
-40 -50 22 25 75 78 79 83 92 95 98 109 150 -51 37 71 87 153 -156 0 
-52 123 136 -7 26 153 -156 0 
-53 6 12 81 113 134 138 145 -10 42 -9 153 -156 0 
-40 -54 -55 28 85 108 144 -56 66 97 103 126 153 -156 0 
-20 68 130 -57 153 -156 0 
-58 107 118 153 -156 0 
-59 11 74 112 121 131 140 142 147 -7 26 153 -156 0 
-43 67 -7 26 153 -156 0 
-60 -24 153 -156 0 
-17 19 33 -22 25 50 75 78 79 83 92 95 98 109 150 -61 5 15 35 41 64 153 -156 0 
-62 119 124 125 133 148 149 -63 -22 25 50 75 78 79 83 92 95 98 109 150 153 -156 0 
-9 153 -156 0 
-9 -24 153 -156 0 
-45 13 44 153 -156 0 
-24 153 -156 0 
-64 5 15 35 41 61 153 -156 0 
-7 26 153 -156 0 
-45 13 44 153 -156 0 
-26 7 -9 153 -156 0 
-65 153 -156 0 
-66 56 97 103 126 153 -156 0 
-67 43 153 -156 0 
-40 153 -156 0 
-40 -68 20 130 -69 36 38 39 82 129 153 -156 0 
-70 143 154 -153 -156 0 
-35 5 15 41 61 64 153 -156 0 
-71 37 51 87 -9 -26 7 -24 153 -156 0 
-19 17 33 -9 -72 73 153 -156 0 
-73 72 -1 153 -156 0 
-22 25 50 75 78 79 83 92 95 98 109 150 -73 72 153 -156 0 
-38 36 39 69 82 129 153 -156 0 
-1 -72 73 -4 153 -156 0 
-49 88 122 137 -72 73 -4 153 -156 0 
-74 11 59 112 121 131 140 142 147 -72 73 153 -156 0 
-39 36 38 69 82 129 153 -156 0 
-4 153 -156 0 
-33 17 19 -7 26 153 -156 0 
-75 22 25 50 78 79 83 92 95 98 109 150 153 -156 0 
-76 29 32 91 153 -156 0 
-77 8 100 153 -156 0 
-25 22 50 75 78 79 83 92 95 98 109 150 153 -156 0 
-78 22 25 50 75 79 83 92 95 98 109 150 153 -156 0 
-79 22 25 50 75 78 83 92 95 98 109 150 153 -156 0 
-3 -24 153 -156 0 
-80 153 -156 0 
-12 6 53 81 113 134 138 145 153 -156 0 
-81 6 12 53 113 134 138 145 -7 26 153 -156 0 
-62 119 124 125 133 148 149 -7 26 153 -156 0 
-82 36 38 39 69 129 153 -156 0 
-83 22 25 50 75 78 79 92 95 98 109 150 -9 153 -156 0 
-84 47 104 115 139 141 153 -156 0 
-85 28 55 108 144 -20 68 130 -22 25 50 75 78 79 83 92 95 98 109 150 153 -156 0 
-85 28 55 108 144 -86 114 153 -156 0 
-40 -50 22 25 75 78 79 83 92 95 98 109 150 -87 37 51 71 153 -156 0 
-88 49 122 137 -9 153 -156 0 
-54 -9 153 -156 0 
-17 19 33 -22 25 50 75 78 79 83 92 95 98 109 150 -5 15 35 41 61 64 153 -156 0 
-20 68 130 -89 21 101 120 132 153 -156 0 
-22 25 50 75 78 79 83 92 95 98 109 150 -90 153 -156 0 
-91 29 32 76 153 -156 0 
-92 22 25 50 75 78 79 83 95 98 109 150 153 -156 0 
-22 25 50 75 78 79 83 92 95 98 109 150 153 -156 0 
-19 17 33 -9 153 -156 0 
-28 55 85 108 144 153 -156 0 
-93 -9 153 -156 0 
-85 28 55 108 144 -7 26 153 -156 0 
-40 -50 22 25 75 78 79 83 92 95 98 109 150 -30 153 -156 0 
-40 -7 26 153 -156 0 
-94 -95 22 25 50 75 78 79 83 92 98 109 150 -96 153 -156 0 
-19 17 33 -97 56 66 103 126 153 -156 0 
-40 -98 22 25 50 75 78 79 83 92 95 109 150 -44 13 45 153 -156 0 
-19 17 33 -99 -9 153 -156 0 
-100 8 77 -101 21 89 120 132 153 -156 0 
-17 19 33 -22 25 50 75 78 79 83 92 95 98 109 150 -102 153 -156 0 
-40 -17 19 33 -22 25 50 75 78 79 83 92 95 98 109 150 153 -156 0 
-78 22 25 50 75 79 83 92 95 98 109 150 -7 26 153 -156 0 
-103 56 66 97 126 153 -156 0 
-104 47 84 115 139 141 153 -156 0 
-105 34 48 146 153 -156 0 
-40 -106 -46 18 111 -107 58 118 153 -156 0 
-64 5 15 35 41 61 153 -156 0 
-108 28 55 85 144 -109 22 25 50 75 78 79 83 92 95 98 150 -4 153 -156 0 
-110 23 117 155 -153 -156 0 
-111 18 46 -70 143 -112 11 59 74 121 131 140 142 147 154 -153 -156 0 
-113 6 12 53 81 134 138 145 -114 86 154 -153 -156 0 
-10 42 154 -153 -156 0 
-113 6 12 53 81 134 138 145 -115 47 84 104 139 141 153 -156 0 
-20 68 130 -116 153 -156 0 
-113 6 12 53 81 134 138 145 -23 110 117 -24 153 -156 0 
-117 23 110 -118 58 107 153 -156 0 
-108 28 55 85 144 -119 62 124 125 133 148 149 -7 26 153 -156 0 
-20 68 130 -120 21 89 101 132 153 -156 0 
-85 28 55 108 144 -25 22 50 75 78 79 83 92 95 98 109 150 -7 26 153 -156 0 
-121 11 59 74 112 131 140 142 147 -7 26 153 -156 0 
-85 28 55 108 144 -78 22 25 50 75 79 83 92 95 98 109 150 -7 26 153 -156 0 
-106 -50 22 25 75 78 79 83 92 95 98 109 150 -7 26 153 -156 0 
-85 28 55 108 144 -22 25 50 75 78 79 83 92 95 98 109 150 -7 26 153 -156 0 
-108 28 55 85 144 -76 29 32 91 153 -156 0 
-67 43 -28 55 85 108 144 153 -156 0 
-40 -67 43 -50 22 25 75 78 79 83 92 95 98 109 150 -19 17 33 153 -156 0 
-59 11 74 112 121 131 140 142 147 -28 55 85 108 144 -24 153 -156 0 
-7 26 -4 153 -156 0 
-122 49 88 137 -7 26 152 -94 -153 -156 0 
-123 52 136 -7 26 151 -153 -156 0 
-124 62 119 125 133 148 149 -7 26 154 -153 -156 0 
-125 62 119 124 133 148 149 -7 26 153 -156 0 
-37 51 71 87 -7 26 -73 72 153 -156 0 
-73 72 -9 153 -156 0 
-126 56 66 97 103 153 -156 0 
-12 6 53 81 113 134 138 145 -9 -4 153 -156 0 
-127 -9 -4 153 -156 0 
-128 -7 26 -24 153 -156 0 
-129 36 38 39 69 82 153 -156 0 
-130 20 68 -32 29 76 91 153 -156 0 
-19 17 33 -9 -24 153 -156 0 
-131 11 59 74 112 121 140 142 147 -9 -4 153 -156 0 
-132 21 89 101 120 153 -156 0 
-40 -54 -133 62 119 124 125 148 149 -10 42 153 -156 0 
-134 6 12 53 81 113 138 145 -135 153 -156 0 
-69 36 38 39 82 129 153 -156 0 
-5 15 35 41 61 64 153 -156 0 
-119 62 124 125 133 148 149 -9 -4 153 -156 0 
-82 36 38 39 69 129 153 -156 0 
-9 -7 26 -4 153 -156 0 
-69 36 38 39 82 129 153 -156 0 
-136 52 123 -137 49 88 122 -138 6 12 53 81 113 134 145 -139 47 84 104 115 141 153 -156 0 
-138 6 12 53 81 113 134 145 -136 52 123 -137 49 88 122 -140 11 59 74 112 121 131 142 147 -139 47 84 104 115 141 154 -153 -156 0 
-140 11 59 74 112 121 131 142 147 -138 6 12 53 81 113 134 145 -141 47 84 104 115 139 154 -153 -156 0 
-142 11 59 74 112 121 131 140 147 154 -153 -156 0 
-94 -143 70 154 -153 -156 0 
-144 28 55 85 108 -139 47 84 104 115 141 153 -156 0 
-138 6 12 53 81 113 134 145 153 -156 0 
-145 6 12 53 81 113 134 138 153 -156 0 
-49 88 122 137 -64 5 15 35 41 61 153 -156 0 
-136 52 123 -146 34 48 105 153 -156 0 
-63 -19 17 33 153 -156 0 
-81 6 12 53 113 134 138 145 -19 17 33 153 -156 0 
-19 17 33 -62 119 124 125 133 148 149 153 -156 0 
-10 42 -147 11 59 74 112 121 131 140 142 -148 62 119 124 125 133 149 156 -153 0 
-149 62 119 124 125 133 148 156 -153 0 
-150 22 25 50 75 78 79 83 92 95 98 109 153 -156 0 
